# Objective value = 15
c_n2n6n13 3
c_n7n22n23 3
c_n13n14n21 3
c_n16n20n23 3
c_n20n22n23 3
y_n0n1 1
y_n1n2 0
y_n0n2 1
y_n1n3 0
y_n0n3 1
y_n1n4 0
y_n0n4 1
y_n1n5 0
y_n0n5 1
y_n1n6 0
y_n0n6 1
y_n1n7 0
y_n0n7 0
y_n1n8 0
y_n0n8 1
y_n1n9 0
y_n0n9 1
y_n1n10 0
y_n0n10 1
y_n1n11 0
y_n0n11 1
y_n1n12 0
y_n0n12 1
y_n1n13 0
y_n0n13 1
y_n1n14 0
y_n0n14 1
y_n1n15 0
y_n0n15 1
y_n1n16 0
y_n0n16 0
y_n1n17 0
y_n0n17 1
y_n1n18 0
y_n0n18 0
y_n1n19 0
y_n0n19 1
y_n1n20 0
y_n0n20 0
y_n1n21 0
y_n0n21 1
y_n1n22 0
y_n0n22 0
y_n1n23 0
y_n0n23 0
y_n2n3 1
y_n2n4 1
y_n2n5 1
y_n2n6 1
y_n2n7 0
y_n2n8 1
y_n2n9 1
y_n2n10 1
y_n2n11 1
y_n2n12 1
y_n2n13 0
y_n2n14 0
y_n2n15 0
y_n2n16 0
y_n2n17 0
y_n2n18 0
y_n2n19 0
y_n2n20 0
y_n2n21 0
y_n2n22 0
y_n2n23 0
y_n3n4 0
y_n3n5 0
y_n3n6 0
y_n3n7 0
y_n3n8 0
y_n3n9 0
y_n3n10 0
y_n3n11 0
y_n3n12 0
y_n3n13 0
y_n3n14 0
y_n3n15 0
y_n3n16 0
y_n3n17 0
y_n3n18 0
y_n3n19 0
y_n3n20 0
y_n3n21 0
y_n3n22 0
y_n3n23 0
y_n4n5 0
y_n4n6 0
y_n4n7 0
y_n4n8 0
y_n4n9 0
y_n4n10 0
y_n4n11 0
y_n4n12 0
y_n4n13 0
y_n4n14 0
y_n4n15 0
y_n4n16 0
y_n4n17 0
y_n4n18 0
y_n4n19 0
y_n4n20 0
y_n4n21 0
y_n4n22 0
y_n4n23 0
y_n5n6 0
y_n5n7 0
y_n5n8 0
y_n5n9 0
y_n5n10 0
y_n5n11 0
y_n5n12 0
y_n5n13 0
y_n5n14 0
y_n5n15 0
y_n5n16 0
y_n5n17 0
y_n5n18 0
y_n5n19 0
y_n5n20 0
y_n5n21 0
y_n5n22 0
y_n5n23 0
y_n6n7 0
y_n6n8 1
y_n6n9 1
y_n6n10 1
y_n6n11 1
y_n6n12 1
y_n6n13 0
y_n6n14 0
y_n6n15 0
y_n6n16 0
y_n6n17 0
y_n6n18 0
y_n6n19 0
y_n6n20 0
y_n6n21 0
y_n6n22 0
y_n6n23 0
y_n7n8 1
y_n7n9 1
y_n7n10 1
y_n7n11 1
y_n7n12 1
y_n7n13 1
y_n7n14 1
y_n7n15 1
y_n7n16 1
y_n7n17 1
y_n7n18 1
y_n7n19 1
y_n7n20 1
y_n7n21 1
y_n7n22 1
y_n7n23 1
y_n8n9 0
y_n8n10 0
y_n8n11 0
y_n8n12 0
y_n8n13 0
y_n8n14 0
y_n8n15 0
y_n8n16 0
y_n8n17 0
y_n8n18 0
y_n8n19 0
y_n8n20 0
y_n8n21 0
y_n8n22 0
y_n8n23 0
y_n9n10 0
y_n9n11 0
y_n9n12 0
y_n9n13 0
y_n9n14 0
y_n9n15 0
y_n9n16 0
y_n9n17 0
y_n9n18 0
y_n9n19 0
y_n9n20 0
y_n9n21 0
y_n9n22 0
y_n9n23 0
y_n10n11 0
y_n10n12 0
y_n10n13 0
y_n10n14 0
y_n10n15 0
y_n10n16 0
y_n10n17 0
y_n10n18 0
y_n10n19 0
y_n10n20 0
y_n10n21 0
y_n10n22 0
y_n10n23 0
y_n11n12 0
y_n11n13 0
y_n11n14 0
y_n11n15 0
y_n11n16 0
y_n11n17 0
y_n11n18 0
y_n11n19 0
y_n11n20 0
y_n11n21 0
y_n11n22 0
y_n11n23 0
y_n12n13 0
y_n12n14 0
y_n12n15 0
y_n12n16 0
y_n12n17 0
y_n12n18 0
y_n12n19 0
y_n12n20 0
y_n12n21 0
y_n12n22 0
y_n12n23 0
y_n13n14 0
y_n13n15 0
y_n13n16 0
y_n13n17 0
y_n13n18 0
y_n13n19 0
y_n13n20 0
y_n13n21 0
y_n13n22 0
y_n13n23 0
y_n14n15 0
y_n14n16 0
y_n14n17 0
y_n14n18 0
y_n14n19 0
y_n14n20 0
y_n14n21 0
y_n14n22 0
y_n14n23 0
y_n15n16 0
y_n15n17 0
y_n15n18 0
y_n15n19 0
y_n15n20 0
y_n15n21 1
y_n15n22 0
y_n15n23 0
y_n16n17 1
y_n16n18 1
y_n16n19 1
y_n16n20 0
y_n16n21 1
y_n16n22 0
y_n16n23 0
y_n17n18 0
y_n17n19 0
y_n17n20 0
y_n17n21 1
y_n17n22 0
y_n17n23 0
y_n18n19 1
y_n18n20 0
y_n18n21 1
y_n18n22 0
y_n18n23 0
y_n19n20 0
y_n19n21 1
y_n19n22 0
y_n19n23 0
y_n20n21 1
y_n20n22 0
y_n20n23 0
y_n21n22 0
y_n21n23 0
y_n22n23 1
pos_n0 6
pos_n1 23
pos_n2 13
pos_n3 22
pos_n4 21
pos_n5 20
pos_n6 14
pos_n7 0
pos_n8 19
pos_n9 18
pos_n10 17
pos_n11 16
pos_n12 15
pos_n13 12
pos_n14 11
pos_n15 9
pos_n16 4
pos_n17 8
pos_n18 5
pos_n19 7
pos_n20 3
pos_n21 10
pos_n22 1
pos_n23 2
z_n3n18 0
z_n3n4 0
z_n4n18 0
z_n4n8 0
z_n6n8 0
z_n4n6 0
z_n6n12 0
z_n5n6 0
z_n6n15 0
z_n6n20 0
z_n6n13 0
z_n5n12 0
z_n12n15 0
z_n12n20 0
z_n12n13 0
z_n5n15 0
z_n5n20 0
z_n5n13 0
z_n15n20 0
z_n13n15 0
z_n13n20 0
z_n0n10 0
z_n9n19 0
z_n0n9 0
z_n1n9 0
z_n0n19 0
z_n1n19 0
z_n0n1 0
z_n11n14 0
z_n2n11 0
z_n7n11 0
z_n2n14 0
z_n7n14 0
z_n2n7 0
z_n2n13 1
z_n1n13 0
z_n1n2 0
z_n17n22 0
z_n5n17 0
z_n17n23 0
z_n5n22 0
z_n22n23 1
z_n5n23 0
z_n1n10 0
z_n1n16 0
z_n10n16 0
z_n4n15 0
z_n15n16 0
z_n15n21 0
z_n4n16 0
z_n4n21 0
z_n16n21 0
z_n3n8 0
z_n8n13 0
z_n3n13 0
z_n2n21 0
z_n2n16 0
z_n6n14 0
z_n10n14 0
z_n14n21 1
z_n6n10 0
z_n6n21 0
z_n2n6 1
z_n10n21 0
z_n2n10 0
z_n5n21 0
z_n13n21 0
z_n9n18 0
z_n2n18 0
z_n14n18 0
z_n18n23 0
z_n2n9 0
z_n9n14 0
z_n9n23 0
z_n2n23 0
z_n14n23 0
z_n20n23 1
z_n8n23 0
z_n12n23 0
z_n8n20 0
z_n9n20 0
z_n18n20 0
z_n8n9 0
z_n8n12 0
z_n8n18 0
z_n9n12 0
z_n12n18 0
z_n7n19 0
z_n0n15 0
z_n0n16 0
z_n15n19 0
z_n16n19 0
z_n4n17 0
z_n17n18 0
z_n11n16 0
z_n16n22 0
z_n16n23 0
z_n11n22 0
z_n11n23 0
z_n2n22 0
z_n12n14 0
z_n12n22 0
z_n9n13 0
z_n9n22 0
z_n13n14 1
z_n13n22 0
z_n14n22 0
z_n7n23 0
z_n7n20 0
z_n7n21 0
z_n21n23 0
z_n20n21 0
z_n7n22 1
z_n15n22 0
z_n20n22 0
z_n7n16 0
z_n16n20 1
z_n7n15 0
